data;


param d:= 100;
param r:=5;
param p:=0.760000;
param M:=1000;
param U:=
         1         1        1.860314e+00
         2         1       -6.533743e-01
         3         1        3.316703e-01
         4         1       -4.638590e-03
         5         1        6.233392e-01
         6         1       -4.041667e-01
         7         1        1.088520e+00
         8         1       -1.804752e+00
         9         1        2.471706e-01
        10         1        4.998855e-01
        11         1       -1.648782e-01
        12         1        2.111332e+00
        13         1        6.912449e-01
        14         1        1.025935e+00
        15         1        4.094262e-01
        16         1       -2.137726e+00
        17         1        1.903365e+00
        18         1        7.215748e-01
        19         1       -8.683392e-01
        20         1        9.903016e-01
        21         1       -1.094336e+00
        22         1        3.497580e-01
        23         1       -3.894741e-01
        24         1        3.748788e-01
        25         1        2.646953e-01
        26         1       -1.982265e+00
        27         1        3.455622e-01
        28         1        1.644212e+00
        29         1       -6.854410e-01
        30         1       -8.220232e-01
        31         1        3.968657e-01
        32         1        4.001557e-01
        33         1       -1.148145e+00
        34         1        1.489317e-01
        35         1       -1.056983e+00
        36         1        8.182256e-01
        37         1        1.104172e+00
        38         1       -4.279784e-01
        39         1        3.413646e-01
        40         1        1.625349e+00
        41         1        1.566492e-01
        42         1        1.672416e+00
        43         1       -3.013489e-01
        44         1       -1.824571e+00
        45         1        1.313171e+00
        46         1        1.117976e+00
        47         1       -2.274809e-01
        48         1        1.950036e-02
        49         1       -1.475124e-01
        50         1        7.489981e-01
        51         1        1.004923e+00
        52         1       -1.711684e-01
        53         1        1.855797e+00
        54         1        2.033061e+00
        55         1       -1.357477e-01
        56         1        3.765146e-01
        57         1       -8.098331e-01
        58         1        2.963261e-01
        59         1        7.235378e-01
        60         1        1.061307e+00
        61         1       -1.190919e+00
        62         1        5.794699e-01
        63         1        4.196422e-01
        64         1        8.783739e-01
        65         1        2.130020e-01
        66         1       -6.576923e-02
        67         1       -6.100894e-01
        68         1        6.434002e-01
        69         1        3.606954e-01
        70         1       -1.173002e+00
        71         1        1.021069e+00
        72         1       -4.460754e-01
        73         1       -2.133911e-01
        74         1       -2.004889e-02
        75         1       -3.932315e-01
        76         1        1.381010e+00
        77         1       -1.971752e+00
        78         1        1.422604e+00
        79         1        2.725426e-01
        80         1       -1.886141e+00
        81         1       -1.304630e+00
        82         1        1.032460e+00
        83         1       -1.140914e-01
        84         1       -7.012431e-01
        85         1        6.405305e-01
        86         1       -2.354431e-01
        87         1       -6.546916e-01
        88         1       -7.508959e-02
        89         1        6.773381e-01
        90         1       -9.232321e-02
        91         1       -1.339085e-01
        92         1        3.296399e-01
        93         1        8.623650e-01
        94         1        8.267418e-01
        95         1       -6.134906e-01
        96         1        1.546931e+00
        97         1       -1.427957e+00
        98         1       -1.586280e+00
        99         1        1.123591e+00
       100         1       -1.752228e+00
         1         2       -7.822554e-01
         2         2       -9.113104e-01
         3         2       -1.133869e+00
         4         2        1.383421e+00
         5         2        8.950137e-01
         6         2       -4.319143e-01
         7         2        5.224643e-01
         8         2        9.795474e-01
         9         2       -1.223273e+00
        10         2        1.314119e+00
        11         2        4.209154e-01
        12         2        7.399155e-01
        13         2        5.986183e-01
        14         2        1.402630e+00
        15         2       -3.234964e-02
        16         2        6.859129e-01
        17         2       -2.462053e-01
        18         2       -8.262234e-01
        19         2       -3.732030e-01
        20         2       -1.617011e+00
        21         2        1.011240e+00
        22         2       -7.831770e-01
        23         2       -3.548089e-01
        24         2        1.575980e+00
        25         2        7.953387e-01
        26         2        8.239193e-01
        27         2        1.477528e+00
        28         2        1.165695e+00
        29         2        1.627357e+00
        30         2       -5.436584e-01
        31         2       -7.103229e-01
        32         2        8.287337e-01
        33         2        2.480046e-01
        34         2       -9.490187e-01
        35         2       -1.752763e-02
        36         2       -1.191585e+00
        37         2        1.617555e+00
        38         2        5.998123e-01
        39         2       -1.083651e-01
        40         2       -7.280659e-01
        41         2        6.830444e-01
        42         2       -9.516967e-01
        43         2       -1.447145e+00
        44         2       -7.164477e-01
        45         2        1.072661e+00
        46         2        7.105225e-01
        47         2        1.291007e+00
        48         2       -6.140379e-01
        49         2       -4.451682e-01
        50         2       -1.603484e-02
        51         2        2.491854e-01
        52         2        1.286913e+00
        53         2       -4.454401e-01
        54         2        1.431647e+00
        55         2       -2.283673e-01
        56         2        4.526520e-01
        57         2       -7.086774e-01
        58         2       -1.088686e+00
        59         2       -7.078453e-01
        60         2        1.614714e+00
        61         2        9.209207e-01
        62         2        1.922218e+00
        63         2       -3.050575e-01
        64         2        1.004818e+00
        65         2       -3.478737e-01
        66         2       -8.533620e-01
        67         2       -1.599943e-01
        68         2        1.819428e+00
        69         2       -2.824399e+00
        70         2        3.941320e-01
        71         2        1.824885e+00
        72         2        3.314244e-02
        73         2       -3.055371e-01
        74         2        7.119274e-01
        75         2       -4.871411e-01
        76         2        5.827560e-01
        77         2        8.845173e-01
        78         2        1.941360e+00
        79         2        2.145169e-01
        80         2       -1.825846e+00
        81         2       -2.517805e+00
        82         2       -8.654960e-01
        83         2        1.408324e+00
        84         2       -6.738316e-01
        85         2        2.011721e-01
        86         2       -1.328644e-02
        87         2        1.636213e+00
        88         2       -9.924677e-01
        89         2        1.792734e+00
        90         2       -1.007788e+00
        91         2        3.695227e-01
        92         2        2.589785e-01
        93         2        1.292729e+00
        94         2        9.072338e-01
        95         2        9.590137e-02
        96         2       -2.692738e-01
        97         2        5.588255e-01
        98         2       -4.474188e-01
        99         2        9.276024e-01
       100         2       -1.107543e+00
         1         3       -9.428577e-01
         2         3        8.984977e-01
         3         3       -1.562475e+00
         4         3        2.933568e+00
         5         3        2.488498e-01
         6         3        2.706475e-01
         7         3        6.384994e-01
         8         3       -1.118404e+00
         9         3        8.387704e-01
        10         3        1.916947e-01
        11         3       -1.055141e+00
        12         3       -1.953849e+00
        13         3        1.072737e+00
        14         3       -1.882145e+00
        15         3       -2.666730e-01
        16         3       -3.865650e-01
        17         3       -1.905152e+00
        18         3        1.895113e+00
        19         3       -2.217463e+00
        20         3       -9.033567e-01
        21         3        5.326395e-01
        22         3        1.157565e+00
        23         3        3.134445e-01
        24         3       -1.302124e+00
        25         3        2.266887e-01
        26         3       -2.253428e-01
        27         3        6.875676e-02
        28         3       -1.116196e-01
        29         3       -7.164002e-01
        30         3       -4.526962e-01
        31         3        3.012479e-01
        32         3        4.529737e-01
        33         3       -6.437080e-01
        34         3       -9.258455e-03
        35         3       -3.711520e-01
        36         3       -1.655805e+00
        37         3        9.853396e-03
        38         3        3.928281e-01
        39         3        2.162055e-01
        40         3       -5.510300e-01
        41         3        1.808146e+00
        42         3       -4.802321e-01
        43         3       -3.252628e-02
        44         3       -2.313051e+00
        45         3       -3.120477e-01
        46         3        7.359121e-01
        47         3       -1.017942e-01
        48         3       -4.194185e-01
        49         3       -4.627681e-01
        50         3        2.109925e+00
        51         3       -1.340050e+00
        52         3       -1.270876e+00
        53         3        1.713330e-01
        54         3        4.883425e-01
        55         3        1.711324e+00
        56         3       -1.575430e+00
        57         3        1.065196e-01
        58         3        1.154729e+00
        59         3        9.196650e-01
        60         3        1.051843e+00
        61         3       -2.843297e-01
        62         3       -9.801396e-01
        63         3        4.789606e-01
        64         3       -3.768117e-01
        65         3       -1.022604e+00
        66         3       -8.064186e-01
        67         3       -6.663380e-01
        68         3       -1.577820e-01
        69         3        5.279613e-01
        70         3        2.155889e-01
        71         3       -1.149171e+00
        72         3        9.594152e-01
        73         3       -8.668709e-01
        74         3       -1.694987e-01
        75         3        1.744138e+00
        76         3        1.649354e+00
        77         3       -1.075024e-01
        78         3       -8.183611e-01
        79         3       -1.774184e+00
        80         3       -3.096434e-01
        81         3        3.018755e+00
        82         3        9.318724e-02
        83         3        7.423190e-01
        84         3        1.236898e+00
        85         3       -1.302881e-01
        86         3        4.445268e-02
        87         3        3.198588e-01
        88         3       -1.625558e-01
        89         3       -6.877452e-01
        90         3        4.708017e-01
        91         3       -1.070546e-01
        92         3       -7.551498e-02
        93         3        9.505981e-01
        94         3       -1.391748e+00
        95         3       -5.778127e-01
        96         3       -1.960322e-01
        97         3       -1.793578e-01
        98         3       -4.544738e-01
        99         3        3.990054e-01
       100         3        1.831724e+00
         1         4       -1.052943e-01
         2         4        5.311425e-01
         3         4       -2.386904e-01
         4         4        2.179848e-01
         5         4        1.976957e+00
         6         4        6.976299e-01
         7         4       -6.944341e-01
         8         4        6.702985e-01
         9         4       -9.482028e-01
        10         4       -1.011422e+00
        11         4        7.019288e-01
        12         4       -1.393379e+00
        13         4       -1.998651e-01
        14         4       -1.723839e+00
        15         4        2.530267e-01
        16         4        2.752754e-01
        17         4        3.492690e-01
        18         4        4.282255e-01
        19         4       -1.189502e+00
        20         4        4.724022e-01
        21         4        4.111514e-01
        22         4       -1.395637e+00
        23         4       -4.865421e-01
        24         4       -1.282057e+00
        25         4       -4.824305e-01
        26         4        3.964575e-01
        27         4       -1.271572e-01
        28         4       -6.892082e-01
        29         4       -9.336828e-01
        30         4       -1.081950e+00
        31         4       -1.336987e+00
        32         4       -6.921736e-01
        33         4       -9.186320e-01
        34         4       -3.459725e-01
        35         4        5.557943e-01
        36         4        6.934943e-01
        37         4        4.121959e-01
        38         4       -4.941368e-01
        39         4        1.697013e+00
        40         4       -1.985785e+00
        41         4        6.437553e-01
        42         4       -1.062391e-01
        43         4       -5.790581e-01
        44         4       -1.341188e+00
        45         4       -1.614110e+00
        46         4       -3.420261e-01
        47         4       -3.539437e-01
        48         4        1.547391e+00
        49         4       -9.320882e-01
        50         4        3.183589e-01
        51         4       -5.269995e-01
        52         4        9.272740e-01
        53         4       -3.890288e-01
        54         4       -1.321323e+00
        55         4       -3.029856e-02
        56         4        2.731055e-01
        57         4       -1.268276e-02
        58         4        5.788333e-01
        59         4       -5.294395e-01
        60         4        1.788086e-01
        61         4       -1.273924e+00
        62         4        5.149788e-01
        63         4       -1.024580e+00
        64         4        1.681889e+00
        65         4        4.593728e-01
        66         4        1.449817e+00
        67         4       -3.406941e-01
        68         4       -1.516326e+00
        69         4        1.549772e-01
        70         4       -1.104127e+00
        71         4       -1.013154e+00
        72         4       -6.202534e-01
        73         4       -4.364509e-01
        74         4        1.356495e-01
        75         4       -1.802862e+00
        76         4       -1.473610e-01
        77         4        1.805187e+00
        78         4       -8.772659e-01
        79         4       -1.085309e+00
        80         4       -1.276427e+00
        81         4       -8.307976e-01
        82         4       -1.163699e+00
        83         4        3.571455e-01
        84         4       -2.535966e-01
        85         4        2.876781e-02
        86         4       -2.596070e-01
        87         4       -2.948672e-01
        88         4        1.803157e+00
        89         4        1.820572e+00
        90         4        1.917766e-01
        91         4       -1.319615e+00
        92         4       -4.449223e-01
        93         4        7.549214e-01
        94         4        1.263417e+00
        95         4        2.753484e+00
        96         4       -2.532415e-02
        97         4        1.354636e-02
        98         4        3.220574e-01
        99         4        1.192576e+00
       100         4       -5.507590e-01
         1         5       -6.573950e-01
         2         5        4.268058e-01
         3         5        1.080049e-01
         4         5       -7.589772e-02
         5         5       -1.394074e-01
         6         5       -9.518621e-01
         7         5        1.703000e+00
         8         5        2.098488e+00
         9         5        1.035337e+00
        10         5       -3.006654e-01
        11         5        1.695668e+00
        12         5       -8.435613e-01
        13         5        8.770074e-01
        14         5        5.737455e-02
        15         5       -2.035812e+00
        16         5        8.679510e-01
        17         5        5.679336e-01
        18         5       -1.341825e+00
        19         5       -5.692599e-01
        20         5       -1.703094e+00
        21         5        1.174217e+00
        22         5       -1.139804e-01
        23         5        7.361079e-01
        24         5        4.348652e-02
        25         5        3.780669e-01
        26         5       -5.192061e-01
        27         5       -1.109108e+00
        28         5       -3.839920e-01
        29         5        3.828066e-01
        30         5       -7.162546e-01
        31         5       -1.990647e+00
        32         5        8.618543e-01
        33         5        3.458884e-01
        34         5        1.065679e+00
        35         5        1.319871e-01
        36         5        3.719781e-01
        37         5        1.667990e+00
        38         5       -1.561176e-01
        39         5       -6.476117e-01
        40         5        3.327172e+00
        41         5       -2.928114e-01
        42         5        2.710037e-01
        43         5        1.395120e-01
        44         5       -7.558807e-02
        45         5        1.260925e+00
        46         5        2.648813e-01
        47         5        2.220524e-01
        48         5        6.154662e-02
        49         5       -1.013727e+00
        50         5        1.067503e+00
        51         5       -6.478871e-01
        52         5       -1.774097e+00
        53         5       -1.037868e+00
        54         5       -8.567197e-01
        55         5        1.307085e+00
        56         5        5.382519e-02
        57         5       -8.849323e-01
        58         5       -3.906468e-01
        59         5        3.572309e-01
        60         5       -5.438795e-01
        61         5       -2.677791e-01
        62         5        8.936979e-01
        63         5        7.831732e-01
        64         5        7.115308e-01
        65         5        1.509945e+00
        66         5        6.232181e-01
        67         5       -1.985137e-01
        68         5       -1.823375e+00
        69         5        2.888717e-01
        70         5       -1.382325e+00
        71         5        1.038532e+00
        72         5       -2.472598e-01
        73         5        7.552954e-01
        74         5       -1.304458e-01
        75         5       -9.349697e-01
        76         5       -3.052637e-01
        77         5        4.057315e-02
        78         5       -1.248175e-03
        79         5        9.184630e-01
        80         5       -4.958913e-01
        81         5        6.943196e-01
        82         5        4.293440e-01
        83         5       -1.563775e+00
        84         5        2.410818e-01
        85         5        3.112135e-01
        86         5       -1.372103e+00
        87         5        2.832329e-01
        88         5        1.763030e+00
        89         5        1.528088e+00
        90         5        9.468812e-02
        91         5       -4.829910e-01
        92         5       -1.249348e+00
        93         5        6.761322e-01
        94         5        1.406141e-01
        95         5        4.089761e-01
        96         5        1.256905e+00
        97         5       -3.477104e-01
        98         5       -1.625574e-01
        99         5       -5.117880e-01
       100         5       -8.860529e-01
;

param theta:=
    1       -8.108657e-01
    2        4.964535e-01
    3        5.685675e-01
    4       -1.717337e+00
    5        1.916065e-01
;
param X_true:=
    1       -2.498979e+00
    2       -2.631722e-01
    3       -1.341844e+00
    4        2.016576e+00
    5       -3.335745e+00
    6       -1.287192e+00
    7        1.261446e+00
    8        4.958927e-01
    9        1.530828e+00
   10        2.137989e+00
   11       -1.280639e+00
   12       -3.197179e-02
   13        1.057098e+00
   14        1.805299e+00
   15       -1.347605e+00
   16        1.602029e+00
   17       -3.074224e+00
   18       -9.145048e-01
   19        1.069065e+00
   20       -3.316130e+00
   21        1.200279e+00
   22        2.286498e+00
   23        1.318000e+00
   24        2.105296e+00
   25        1.308381e+00
   26        1.082699e+00
   27        3.926678e-01
   28        2.245275e-01
   29        2.558578e+00
   30        1.725219e+00
   31        1.302791e+00
   32        1.705413e+00
   33        2.254621e+00
   34        2.119249e-01
   35       -2.490552e-01
   36       -3.201200e+00
   37       -5.000663e-01
   38        1.576017e+00
   39       -3.301294e+00
   40        1.900535e+00
   41        9.544199e-02
   42       -2.112279e+00
   43        4.763591e-01
   44        2.133084e+00
   45        2.322673e+00
   46        4.582165e-01
   47        1.441810e+00
   48       -3.084543e+00
   49        1.128528e+00
   50        1.823988e-01
   51       -6.595163e-01
   52       -1.901140e+00
   53       -1.262224e+00
   54        1.265253e+00
   55        1.235934e+00
   56       -1.225644e+00
   57        9.485096e-02
   58       -1.228698e+00
   59        4.710831e-01
   60       -4.520479e-02
   61        3.589421e+00
   62       -8.433463e-01
   63        1.566153e+00
   64       -3.167406e+00
   65       -1.422080e+00
   66       -3.276912e+00
   67        6.892720e-01
   68        2.492424e+00
   69       -1.562898e+00
   70        3.076584e+00
   71        1.365093e+00
   72        1.859818e+00
   73        4.425528e-01
   74       -4.120158e-03
   75        4.141908e+00
   76        3.204756e-01
   77       -1.196223e+00
   78        8.105130e-01
   79        7.971816e-01
   80        2.595597e+00
   81        3.119752e+00
   82        8.154526e-01
   83        4.006630e-01
   84        1.509191e+00
   85       -4.025627e-01
   86        3.517268e-01
   87        2.112499e+00
   88       -3.239878e+00
   89       -3.097697e+00
   90       -4.929495e-01
   91        2.555180e+00
   92        3.465581e-01
   93       -5.455562e-01
   94       -3.113817e+00
   95       -4.471763e+00
   96       -1.229591e+00
   97        1.179125e+00
   98        2.460957e-01
   99       -2.321267e+00
  100        2.729563e+00
;
param X:=
    1        1.443150e+00
    2       -7.459943e-01
    3       -3.083615e-01
    4        1.985990e+00
    5        2.143269e+00
    6       -1.287192e+00
    7       -1.060450e+00
    8        4.958927e-01
    9       -9.661514e-01
   10        6.830537e-01
   11       -1.280639e+00
   12       -3.197179e-02
   13        6.481374e-01
   14        6.988207e-01
   15       -1.347605e+00
   16       -2.496218e+00
   17       -1.391104e-01
   18       -6.192423e-02
   19        1.069065e+00
   20       -1.089111e+00
   21        5.233854e-01
   22        2.286498e+00
   23        1.318000e+00
   24       -3.675360e-01
   25        1.308381e+00
   26        1.315060e-01
   27       -1.368453e+00
   28       -5.281713e-01
   29        1.334150e+00
   30       -1.859952e-01
   31        4.007017e-01
   32       -1.000567e+00
   33        9.191074e-01
   34       -8.932324e-01
   35       -1.178556e+00
   36       -3.201200e+00
   37       -5.000663e-01
   38       -4.476873e-01
   39        1.188089e-01
   40        7.312747e-01
   41       -1.947013e-01
   42        5.194457e-01
   43       -1.237541e+00
   44       -9.064873e-01
   45        2.322673e+00
   46        4.582165e-01
   47        1.161918e+00
   48        2.183729e+00
   49        2.185501e+00
   50        1.823988e-01
   51        7.268295e-01
   52        9.988023e-01
   53       -1.732616e+00
   54       -3.211154e-01
   55       -7.963181e-01
   56       -6.011119e-01
   57        1.120725e+00
   58        2.222403e-01
   59        2.797587e-01
   60       -4.520479e-02
   61        3.589421e+00
   62        1.101444e+00
   63       -1.989316e-01
   64       -3.167406e+00
   65       -1.860621e+00
   66       -1.286762e+00
   67        2.718656e-01
   68       -7.888629e-03
   69        1.256924e+00
   70        1.721525e-01
   71       -5.956335e-02
   72       -6.172357e-01
   73       -6.892185e-01
   74       -1.726983e+00
   75        7.283374e-01
   76        3.204756e-01
   77        9.614428e-01
   78        1.206569e+00
   79       -4.964581e-01
   80       -1.194913e+00
   81        3.119752e+00
   82        3.619500e-01
   83        9.669753e-01
   84       -6.596834e-01
   85        4.227496e-01
   86       -1.898645e+00
   87       -8.746159e-01
   88       -3.239878e+00
   89       -6.465317e-01
   90       -4.670593e-01
   91       -4.121281e-01
   92        1.271746e+00
   93        4.374975e-01
   94       -3.113817e+00
   95       -4.471763e+00
   96       -1.229591e+00
   97       -2.124569e-01
   98        2.460957e-01
   99        1.074892e+00
  100       -1.684528e+00
;
param outliervec:=
    1    1
    2    1
    3    1
    4    1
    5    1
    6    0
    7    1
    8    0
    9    1
   10    1
   11    0
   12    0
   13    1
   14    1
   15    0
   16    1
   17    1
   18    1
   19    0
   20    1
   21    1
   22    0
   23    0
   24    1
   25    0
   26    1
   27    1
   28    1
   29    1
   30    1
   31    1
   32    1
   33    1
   34    1
   35    1
   36    0
   37    0
   38    1
   39    1
   40    1
   41    1
   42    1
   43    1
   44    1
   45    0
   46    0
   47    1
   48    1
   49    1
   50    0
   51    1
   52    1
   53    1
   54    1
   55    1
   56    1
   57    1
   58    1
   59    1
   60    0
   61    0
   62    1
   63    1
   64    0
   65    1
   66    1
   67    1
   68    1
   69    1
   70    1
   71    1
   72    1
   73    1
   74    1
   75    1
   76    0
   77    1
   78    1
   79    1
   80    1
   81    0
   82    1
   83    1
   84    1
   85    1
   86    1
   87    1
   88    0
   89    1
   90    1
   91    1
   92    1
   93    1
   94    0
   95    0
   96    0
   97    1
   98    0
   99    1
  100    1
;